10J3M/DAT/10J3MNNX-8.dat
10 3
25.7567 5.0751
29.523 5.4335
36.1718 6.0143
25.3915 5.039
29.8874 5.4669
28.3442 5.3239
19.7544 4.4446
28.1328 5.304
22.2991 4.7222
28.175 5.308
52.1315