10J3M/SOL/10J3MNNX-8.sol
solution status: optimal solution found
objective value:                              85.8383
x#1#2                               0.651034908866233 	(obj:0)
x#1#3                               0.348965091133767 	(obj:0)
x#2#3                                               1 	(obj:0)
x#3#2                                               1 	(obj:0)
x#4#1                                               1 	(obj:0)
x#5#2                                               1 	(obj:0)
x#6#1                               0.377085461355123 	(obj:0)
x#6#3                               0.622914538644877 	(obj:0)
x#7#1                                               1 	(obj:0)
x#8#2                                               1 	(obj:0)
x#9#1                                               1 	(obj:0)
x#10#3                                              1 	(obj:0)
z                                             85.8383 	(obj:1)
